SCIP Status        : problem is solved [optimal solution found]
Total Time         :      22.18
  solving          :      22.17
  presolving       :       0.68 (included in solving)
  reading          :       0.01
  copying          :       0.02 (3 #copies) (minimal 0.00, maximal 0.01, average 0.01)
Original Problem   :
  Problem name     : chp_shorttermplan1a
  Variables        : 1008 (0 binary, 144 integer, 0 implicit integer, 864 continuous)
  Constraints      : 2068 initial, 2068 maximal
  Objective        : minimize, 48 non-zeros (abs.min = 1, abs.max = 1)
Presolved Problem  :
  Problem name     : t_chp_shorttermplan1a
  Variables        : 436 (16 binary, 0 integer, 0 implicit integer, 420 continuous)
  Constraints      : 453 initial, 453 maximal
  Objective        : minimize, 73 non-zeros (abs.min = 0.0977, abs.max = 0.44156)
  Nonzeros         : 2000 constraint, 2 clique table
Presolvers         :   ExecTime  SetupTime  Calls  FixedVars   AggrVars   ChgTypes  ChgBounds   AddHoles    DelCons    AddCons   ChgSides   ChgCoefs
  boundshift       :       0.00       0.00      0          0          0          0          0          0          0          0          0          0
  convertinttobin  :       0.00       0.00      0          0          0          0          0          0          0          0          0          0
  domcol           :       0.00       0.00      5          0          0          0          0          0          0          0          0          0
  dualagg          :       0.00       0.00      0          0          0          0          0          0          0          0          0          0
  dualcomp         :       0.00       0.00      5          0          0          0          0          0          0          0          0          0
  dualinfer        :       0.00       0.00      0          0          0          0          0          0          0          0          0          0
  dualsparsify     :       0.00       0.00      1          0          0          0          0          0          0          0          0          0
  gateextraction   :       0.00       0.00      3          0          0          0          0          0          0          0          0          0
  implics          :       0.00       0.00     18          0          0          0          0          0          0          0          0          0
  inttobinary      :       0.00       0.00      0          0          0          0          0          0          0          0          0          0
  qpkktref         :       0.00       0.00      0          0          0          0          0          0          0          0          0          0
  redvub           :       0.00       0.00      0          0          0          0          0          0          0          0          0          0
  sparsify         :       0.00       0.00      1          0          0          0          0          0          0          0          0          0
  stuffing         :       0.00       0.00      0          0          0          0          0          0          0          0          0          0
  trivial          :       0.00       0.00    432        647          0          0          0          0          0          0          0          0
  tworowbnd        :       0.00       0.00      0          0          0          0          0          0          0          0          0          0
  dualfix          :       0.00       0.00    432       1430          0          0          0          0          0          0          0          0
  genvbounds       :       0.00       0.00    420          0          0          0          0          0          0          0          0          0
  probing          :       0.02       0.00      2          0         46          0          0          0          0          0          0          0
  pseudoobj        :       0.00       0.00      5          0          0          0          0          0          0          0          0          0
  symmetry         :       0.01       0.00      1          0          0          0          0          0          0          0          0          0
  vbounds          :       0.00       0.00      1          0         48          0          0          0          0          0          0          0
  varbound         :       0.00       0.00    442          0          0          0        144          0        144          0          0         31
  setppc           :       0.00       0.00     11          0          0          0          0          0          0          0          0          0
  linear           :       0.13       0.00    449         48        106          0       9885          0        717          0        107          5
  logicor          :       0.01       0.00    449          1          0          0          0          0        105          0          0        170
  nonlinear        :       0.49       0.02    455          0          0          0         48          0        290          0          0       -206
  benders          :       0.00       0.00      0          0          0          0          0          0          0          0          0          0
  components       :       0.00       0.00      4          0          0          0          0          0          0          0          0          0
  root node        :          -          -      -         90          -          -       2446          -          -          -          -          -
Constraints        :     Number  MaxNumber  #Separate #Propagate    #EnfoLP    #EnfoRelax  #EnfoPS    #Check   #ResProp    Cutoffs    DomReds       Cuts    Applied      Conss   Children
  benderslp        :          0          0          0          0         21          0          0        129          0          0          0          0          0          0          0
  integral         :          0          0          0          0         21          0          0        129          0          0        111          0          0          0          4
  varbound         :         64         64        135       7596          0          0          0        117          1          0        182          0          0          0          0
  setppc           :          0+         1         24        441          0          0          0          0          1          0          0          0          0          0          0
  linear           :        281        281        135       7598          0          0          0         23        371         57         87         21         10          0          0
  logicor          :         14+        15        135       2176          0          0          0         21         47         25          4          0          0          0          0
  nonlinear        :         94         94        156       7516          4          0          0         21          0          0        994       1949       1495          0          0
  benders          :          0          0          0          0          0          0          0         11          0          0          0          0          0          0          0
  countsols        :          0          0          0          0          0          0          0         11          0          0          0          0          0          0          0
  components       :          0          0          0          0          0          0          0          0          0          0          0          0          0          0          0
Constraint Timings :  TotalTime  SetupTime   Separate  Propagate     EnfoLP     EnfoPS     EnfoRelax   Check    ResProp    SB-Prop
  benderslp        :       0.00       0.00       0.00       0.00       0.00       0.00       0.00       0.00       0.00       0.00
  integral         :       0.07       0.00       0.00       0.00       0.07       0.00       0.00       0.00       0.00       0.00
  varbound         :       0.04       0.00       0.01       0.03       0.00       0.00       0.00       0.00       0.00       0.00
  setppc           :       0.00       0.00       0.00       0.00       0.00       0.00       0.00       0.00       0.00       0.00
  linear           :       0.06       0.00       0.03       0.02       0.00       0.00       0.00       0.00       0.00       0.00
  logicor          :       0.01       0.00       0.00       0.00       0.00       0.00       0.00       0.00       0.00       0.00
  nonlinear        :       0.26       0.02       0.11       0.12       0.00       0.00       0.00       0.00       0.00       0.00
  benders          :       0.00       0.00       0.00       0.00       0.00       0.00       0.00       0.00       0.00       0.00
  countsols        :       0.00       0.00       0.00       0.00       0.00       0.00       0.00       0.00       0.00       0.00
  components       :       0.00       0.00       0.00       0.00       0.00       0.00       0.00       0.00       0.00       0.00
Propagators        : #Propagate   #ResProp    Cutoffs    DomReds
  dualfix          :         32          0          0         33
  genvbounds       :        169          0          1         30
  nlobbt           :          0          0          0          0
  obbt             :         13          0          0        154
  probing          :          0          0          0          0
  pseudoobj        :        242          0          0          0
  redcost          :        207          0          0         50
  rootredcost      :          1          0          0         35
  symmetry         :          0          0          0          0
  vbounds          :       4434          0          0          0
Propagator Timings :  TotalTime  SetupTime   Presolve  Propagate    ResProp    SB-Prop
  dualfix          :       0.00       0.00       0.00       0.00       0.00       0.00
  genvbounds       :       0.01       0.00       0.00       0.00       0.00       0.00
  nlobbt           :       0.00       0.00       0.00       0.00       0.00       0.00
  obbt             :       2.64       0.00       0.00       2.64       0.00       0.00
  probing          :       0.02       0.00       0.02       0.00       0.00       0.00
  pseudoobj        :       0.00       0.00       0.00       0.00       0.00       0.00
  redcost          :       0.00       0.00       0.00       0.00       0.00       0.00
  rootredcost      :       0.00       0.00       0.00       0.00       0.00       0.00
  symmetry         :       0.01       0.00       0.01       0.00       0.00       0.00
  vbounds          :       0.00       0.00       0.00       0.00       0.00       0.00
Conflict Analysis  :       Time      Calls    Success    DomReds  Conflicts   Literals    Reconvs ReconvLits   Dualrays   Nonzeros   LP Iters   (pool size: [10000,10000])
  propagation      :       0.00         58         46          -         66        9.3          7        8.0          -          -          -
  infeasible LP    :       0.00          3          3          -          0        0.0          0        0.0          3      117.7          0
  bound exceed. LP :       0.01         21        102          -          8        4.4          0        0.0         98        6.0         85
  strong branching :       0.00          0          0          -          0        0.0          0        0.0          -          -          0
  pseudo solution  :       0.00          0          0          -          0        0.0          0        0.0          -          -          -
  applied globally :       0.00          -          -         94         36        8.8          -          -        101          -          -
  applied locally  :          -          -          -          0         23        7.7          -          -          0          -          -
Separators         :   ExecTime  SetupTime      Calls  RootCalls    Cutoffs    DomReds  FoundCuts ViaPoolAdd  DirectAdd    Applied ViaPoolApp  DirectApp      Conss
  cut pool         :       0.02          -        227        227          -          -       2681       2619          -          -          -          -          -    (maximal pool size:       1710)
  aggregation      :       7.39       0.00        135        135          0          0       1447        996          0        416        416          0          0
  > cmir           :          -          -          -          -          -          -          -        731          0        281        281          0          -
  > flowcover      :          -          -          -          -          -          -          -        265          0        135        135          0          -
  > knapsackcover  :          -          -          -          -          -          -          -          0          0          0          0          0          -
  cgmip            :       0.00       0.00          0          0          0          0          0          0          0          0          0          0          0
  clique           :       0.00       0.00         33         33          0          0          0          0          0          0          0          0          0
  closecuts        :       0.00       0.00          0          0          0          0          0          0          0          0          0          0          0
  convexproj       :       0.00       0.00          0          0          0          0          0          0          0          0          0          0          0
  disjunctive      :       0.00       0.00          0          0          0          0          0          0          0          0          0          0          0
  eccuts           :       0.00       0.00          0          0          0          0          0          0          0          0          0          0          0
  gauge            :       0.00       0.00          0          0          0          0          0          0          0          0          0          0          0
  gomory           :       0.06       0.00         40         40          0          0       1199       1595          0        115        115          0          0
  > gomorymi       :          -          -          -          -          -          -          -       1595          0        115        115          0          -
  > strongcg       :          -          -          -          -          -          -          -          0          0          0          0          0          -
  impliedbounds    :       0.00       0.00        135        135          0          0          0          0          0          0          0          0          0
  interminor       :       0.00       0.00          0          0          0          0          0          0          0          0          0          0          0
  intobj           :       0.00       0.00          0          0          0          0          0          0          0          0          0          0          0
  mcf              :       0.00       0.00          6          6          0          0          0          0          0          0          0          0          0
  minor            :       0.00       0.00          0          0          0          0          0          0          0          0          0          0          0
  mixing           :       0.00       0.00        135        135          0          0          0          0          0          0          0          0          0
  oddcycle         :       0.00       0.00          0          0          0          0          0          0          0          0          0          0          0
  rapidlearning    :       0.00       0.00          0          0          0          0          0          0          0          0          0          0          0
  rlt              :       0.02       0.00         40         40          0          0         34         28          0         25         25          0          0
  zerohalf         :       0.03       0.00         80         80          0          0          0          0          0          0          0          0          0
Cutselectors       :   ExecTime  SetupTime      Calls  RootCalls   Selected     Forced   Filtered  RootSelec   RootForc   RootFilt 
  hybrid           :       0.01       0.00        157        136       2039          0       2470       1606          0       2457
Pricers            :   ExecTime  SetupTime      Calls       Vars
  problem variables:       0.00          -          0          0
Branching Rules    :   ExecTime  SetupTime   BranchLP  BranchExt   BranchPS    Cutoffs    DomReds       Cuts      Conss   Children
  allfullstrong    :       0.00       0.00          0          0          0          0          0          0          0          0
  cloud            :       0.00       0.00          0          0          0          0          0          0          0          0
  distribution     :       0.00       0.00          0          0          0          0          0          0          0          0
  fullstrong       :       0.00       0.00          0          0          0          0          0          0          0          0
  inference        :       0.00       0.00          0          0          0          0          0          0          0          0
  leastinf         :       0.00       0.00          0          0          0          0          0          0          0          0
  lookahead        :       0.00       0.00          0          0          0          0          0          0          0          0
  mostinf          :       0.00       0.00          0          0          0          0          0          0          0          0
  multaggr         :       0.00       0.00          0          0          0          0          0          0          0          0
  nodereopt        :       0.00       0.00          0          0          0          0          0          0          0          0
  pscost           :       0.00       0.00          0          0          0          0          0          0          0          0
  random           :       0.00       0.00          0          0          0          0          0          0          0          0
  relpscost        :       0.07       0.00         17          0          0          0        111          0          0          4
  vanillafullstrong:       0.00       0.00          0          0          0          0          0          0          0          0
Primal Heuristics  :   ExecTime  SetupTime      Calls      Found       Best
  LP solutions     :       0.00          -          -          0          0
  relax solutions  :       0.00          -          -          0          0
  pseudo solutions :       0.00          -          -          0          0
  strong branching :       0.00          -          -          0          0
  actconsdiving    :       0.00       0.00          0          0          0
  adaptivediving   :       0.00       0.00          0          0          0
  alns             :       0.54       0.00          1          0          0
  bound            :       0.00       0.00          0          0          0
  clique           :       0.00       0.00          1          0          0
  coefdiving       :       0.00       0.00          0          0          0
  completesol      :       0.00       0.00          0          0          0
  conflictdiving   :       0.06       0.00          4          0          0
  crossover        :       0.00       0.00          0          0          0
  dins             :       0.00       0.00          0          0          0
  distributiondivin:       0.00       0.00          0          0          0
  dps              :       0.00       0.00          0          0          0
  dualval          :       0.00       0.00          0          0          0
  farkasdiving     :       0.21       0.00          4          0          0
  feaspump         :       0.06       0.00          1          0          0
  fixandinfer      :       0.00       0.00          0          0          0
  fracdiving       :       0.00       0.00          0          0          0
  gins             :       0.00       0.00          0          0          0
  guideddiving     :       0.00       0.00          0          0          0
  indicator        :       0.00       0.00          0          0          0
  indicatordiving  :       0.00       0.00          0          0          0
  intdiving        :       0.00       0.00          0          0          0
  intshifting      :       0.00       0.00          1          0          0
  linesearchdiving :       0.00       0.00          0          0          0
  localbranching   :       0.00       0.00          0          0          0
  locks            :       0.02       0.00          1          0          0
  lpface           :       0.00       0.00          0          0          0
  mpec             :       0.00       0.00          0          0          0
  multistart       :       0.00       0.00          0          0          0
  mutation         :       0.00       0.00          0          0          0
  nlpdiving        :       0.00       0.00          0          0          0
  objpscostdiving  :       0.00       0.00          0          0          0
  octane           :       0.00       0.00          0          0          0
  ofins            :       0.00       0.00          0          0          0
  oneopt           :       0.00       0.00          3          0          0
  padm             :       0.00       0.00          0          0          0
  proximity        :       0.00       0.00          0          0          0
  pscostdiving     :       0.00       0.00          0          0          0
  randrounding     :       0.17       0.00        138          0          0
  rens             :       8.10       0.00          2          2          2
  reoptsols        :       0.00       0.00          0          0          0
  repair           :       0.00       0.00          0          0          0
  rins             :       0.00       0.00          0          0          0
  rootsoldiving    :       0.00       0.00          0          0          0
  rounding         :       0.01       0.00        114          0          0
  shiftandpropagate:       0.01       0.00          1          0          0
  shifting         :       0.04       0.00        100          0          0
  simplerounding   :       0.00       0.00          0          0          0
  subnlp           :       1.18       0.00          3          2          1
  trivial          :       0.00       0.00          2          0          0
  trivialnegation  :       0.00       0.00          0          0          0
  trustregion      :       0.00       0.00          0          0          0
  trysol           :       0.00       0.00          0          0          0
  twoopt           :       0.00       0.00          0          0          0
  undercover       :       0.03       0.00          1          0          0
  vbounds          :       0.00       0.00          0          0          0
  veclendiving     :       0.00       0.00          0          0          0
  zeroobj          :       0.00       0.00          0          0          0
  zirounding       :       0.00       0.00          5          0          0
  other solutions  :          -          -          -          0          -
Expressions        :   #IntEval  IntEvalTi   #RevProp  RevPropTi    DomReds    Cutoffs  #Estimate  EstimTime  Branching  #Simplify SimplifyTi Simplified
  pow              :      58457       0.01       1032       0.00          0          0       2008       0.00          0       1924       0.00        146
  prod             :      21856       0.01          0       0.00          0          0       7539       0.00          0       2824       0.00       1696
  sum              :      51408       0.02         96       0.00         48          0        939       0.00          0       5069       0.01       2489
  val              :          1       0.00          0       0.00          0          0          0       0.00          0          0       0.00          0
  var              :     164836       0.01          0       0.00          0          0          0       0.00          0       7259       0.00       1417
Nlhdlrs            :    Detects  DetectAll DetectTime   #IntEval  IntEvalTi   #RevProp  RevPropTi    DomReds    Cutoffs   #Enforce   EnfoTime       Cuts  Branching
  soc              :          0          0       0.00          0       0.00          0       0.00          0          0          0       0.00          0          0
  convex           :          0          0       0.01          0       0.00          0       0.00          0          0          0       0.00          0          0
  concave          :          0          0       0.01          0       0.00          0       0.00          0          0          0       0.00          0          0
  signomial        :         16        280       0.00          0       0.00          0       0.00          0          0       5713       0.04        101          0
  quotient         :          0          0       0.00          0       0.00          0       0.00          0          0          0       0.00          0          0
  quadratic        :         94      51222       0.05     124770       0.09      57945       0.07       3050          0          0       0.00          0          0
  default          :        283      72568       0.01      93563       0.01       4652       0.00         48          0      10198       0.02       1302          0
  bilinear         :          0          0       0.00          0       0.00          0       0.00          0          0          0       0.00          0          0
  perspective      :         47        335       0.01          0       0.00          0       0.00          0          0       1912       0.01       1092          0
LP                 :       Time      Calls Iterations  Iter/call   Iter/sec  Time-0-It Calls-0-It    ItLimit
  primal LP        :       0.09         20          0       0.00       0.00       0.09         20
  dual LP          :       0.41        181       8140      47.05   19696.80       0.00          8
  lex dual LP      :       0.00          0          0       0.00          -
  barrier LP       :       0.00          0          0       0.00          -       0.00          0
  resolve instable :       0.00          0          0       0.00          -
  diving/probing LP:       2.78        528      18507      35.05    6657.60
  strong branching :       0.05         24       1188      49.50   25312.14          -          -          0
    (at root node) :          -          9        698      77.56          -
  conflict analysis:       0.01          9         85       9.44          -
NLP relaxation     :
  solve time       :       0.00 (0 calls)
  convexity        :  nonconvex (144 linear rows, 78 convex ineq., 16 nonconvex ineq., 0 nonlinear eq. or two-sided ineq.)
NLP Solvers        :  #Problems  ProblemTi    #Solves  SolveTime      #Iter  Time/Iter      #Okay #TimeLimit #IterLimit #LObjLimit #Interrupt  #NumError #EvalError  #OutOfMem #LicenseEr #OtherTerm   #GlobOpt    #LocOpt  #Feasible #LocInfeas #GlobInfea #Unbounded   #Unknown
  ipopt            :          7       0.01          3       1.09        144       0.01          3          0          0          0          0          0          0          0          0          0          0          3          0          0          0          0          0
B&B Tree           :
  number of runs   :          4
  nodes            :          5 (2 internal, 3 leaves)
  feasible leaves  :          0
  infeas. leaves   :          1
  objective leaves :          2
  nodes (total)    :          8 (2 internal, 6 leaves)
  nodes left       :          0
  max depth        :          2
  max depth (total):          2
  backtracks       :          1 (20.0%)
  early backtracks :          0 (0.0%)
  nodes exc. ref.  :          0 (0.0%)
  delayed cutoffs  :          0
  repropagations   :          1 (0 domain reductions, 0 cutoffs)
  avg switch length:       2.40
  switching time   :       0.01
Root Node          :
  First LP value   : +1.93622926979126e+02
  First LP Iters   :        889 (44709.31 Iter/sec)
  First LP Time    :       0.02
  Final Dual Bound : +2.14670979297504e+02
  Final Root Iters :       8591
  Root LP Estimate : +2.14901295330799e+02
Solution           :
  Solutions found  :          4 (6 improvements)
  First Solution   : +3.11653579101782e+02   (in run 1, after 1 nodes, 0.86 seconds, depth 0, found by <feaspump>)
  Gap First Sol.   :      60.96 %
  Gap Last Sol.    :       0.17 %
  Primal Bound     : +2.14842346421643e+02   (in run 2, after 1 nodes, 17.16 seconds, depth 0, found by <rens>)
  Dual Bound       : +2.14842346421643e+02
  Gap              :       0.00 %
Integrals          :      Total       Avg%
  primal-dual      :     354.86      16.01
  primal-ref       :          -          - (not evaluated)
  dual-ref         :          -          - (not evaluated)
